instances/knapsack/discrete/knapsack_80_19.lp
\ Model knapsack_80_19
\ LP format - for model browsing. Use MPS format to capture full model detail.
\ Signature: 0xf86d0bbf74a39a5e
Minimize
  - 97 x[0] - 21 x[1] - 55 x[2] - 31 x[3] - 12 x[4] - 44 x[5] - 52 x[6]
   - 22 x[7] - 93 x[8] - 77 x[9] - 38 x[10] - 14 x[11] - 6 x[12] - 17 x[13]
   - 62 x[14] - 87 x[15] - 33 x[16] - 77 x[17] - 45 x[18] - 48 x[19]
   - 80 x[20] - 2 x[21] - 55 x[22] - 23 x[23] - 52 x[24] - 21 x[25]
   - 55 x[26] - 94 x[27] - 61 x[28] - 95 x[29] - 92 x[30] - 11 x[31]
   - 95 x[32] - 90 x[33] - 10 x[34] - 96 x[35] - 76 x[36] - 42 x[37]
   - 9 x[38] - 70 x[39] - 19 x[40] - 28 x[41] - 24 x[42] - 74 x[43]
   - 53 x[44] - 22 x[45] - 75 x[46] - 3 x[47] - 55 x[48] - 32 x[49]
   - 54 x[50] - 81 x[51] - 86 x[52] - 28 x[53] - 51 x[54] - 73 x[55]
   - 37 x[56] - 3 x[57] - 31 x[58] - 70 x[59] - 19 x[60] - 25 x[61]
   - 56 x[62] - 60 x[63] - 37 x[64] - 20 x[65] - 36 x[66] - 56 x[67]
   - 95 x[68] - 48 x[69] - 32 x[70] - 26 x[71] - 20 x[72] - 40 x[73]
   - 29 x[74] - 81 x[75] - 21 x[76] - 72 x[77] - 71 x[78] - 34 x[79]
Subject To
 primal_upper: 12 x[0] + 49 x[1] + 67 x[2] + 88 x[3] + 61 x[4] + 86 x[5]
   + 34 x[6] + 32 x[7] + 94 x[8] + 67 x[9] + 96 x[10] + 56 x[11] + x[12]
   + 81 x[13] + 61 x[14] + 77 x[15] + 14 x[16] + 17 x[17] + 30 x[18]
   + 95 x[19] + 54 x[20] + 88 x[21] + 77 x[22] + 71 x[23] + 97 x[24]
   + 49 x[25] + 83 x[26] + 32 x[27] + 10 x[28] + 36 x[29] + 38 x[30]
   + 84 x[31] + 64 x[32] + 90 x[33] + 17 x[34] + 82 x[35] + 65 x[36]
   + 21 x[37] + 57 x[38] + 95 x[39] + 8 x[40] + 22 x[41] + 47 x[42]
   + 82 x[43] + 32 x[44] + 11 x[45] + 86 x[46] + 82 x[47] + 24 x[48]
   + 77 x[49] + 83 x[50] + 29 x[51] + 78 x[52] + 97 x[53] + 89 x[54]
   + 100 x[55] + 74 x[56] + 87 x[57] + 17 x[58] + 83 x[59] + 81 x[60]
   + 67 x[61] + 32 x[62] + 55 x[63] + 100 x[64] + 5 x[65] + 85 x[66]
   + 67 x[67] + 33 x[68] + 46 x[69] + 14 x[70] + 66 x[71] + 31 x[72]
   + 68 x[73] + 92 x[74] + 69 x[75] + 63 x[76] + 88 x[77] + 81 x[78]
   + 11 x[79] + 1.2 r[0] + 4.9 r[1] + 6.7 r[2] + 8.8 r[3] + 6.1 r[4]
   + 8.6 r[5] + 3.4 r[6] + 3.2 r[7] + 9.4 r[8] + 6.7 r[9] + 9.6 r[10]
   + 5.6 r[11] + 0.1 r[12] + 8.1 r[13] + 6.1 r[14] + 7.7 r[15] + 1.4 r[16]
   + 1.7 r[17] + 3 r[18] + 9.5 r[19] + 5.4 r[20] + 8.8 r[21] + 7.7 r[22]
   + 7.1 r[23] + 9.7 r[24] + 4.9 r[25] + 8.3 r[26] + 3.2 r[27] + r[28]
   + 3.6 r[29] + 3.8 r[30] + 8.4 r[31] + 6.4 r[32] + 9 r[33] + 1.7 r[34]
   + 8.2 r[35] + 6.5 r[36] + 2.1 r[37] + 5.7 r[38] + 9.5 r[39] + 0.8 r[40]
   + 2.2 r[41] + 4.7 r[42] + 8.2 r[43] + 3.2 r[44] + 1.1 r[45] + 8.6 r[46]
   + 8.2 r[47] + 2.4 r[48] + 7.7 r[49] + 8.3 r[50] + 2.9 r[51] + 7.8 r[52]
   + 9.7 r[53] + 8.9 r[54] + 10 r[55] + 7.4 r[56] + 8.7 r[57] + 1.7 r[58]
   + 8.3 r[59] + 8.1 r[60] + 6.7 r[61] + 3.2 r[62] + 5.5 r[63] + 10 r[64]
   + 0.5 r[65] + 8.5 r[66] + 6.7 r[67] + 3.3 r[68] + 4.6 r[69] + 1.4 r[70]
   + 6.6 r[71] + 3.1 r[72] + 6.8 r[73] + 9.2 r[74] + 6.9 r[75] + 6.3 r[76]
   + 8.8 r[77] + 8.1 r[78] + 1.1 r[79] <= 446
 primal_lower: 0.8032473118403902 x[0] + 2.935043040024198 x[1]
   + 1.651638995332038 x[2] + 0.5211173611510044 x[3]
   + 0.1402223479146184 x[4] + 3.539342112934054 x[5]
   + 3.155915765467178 x[6] + 1.507703271518013 x[7]
   + 2.277122086629023 x[8] + 2.724130128092626 x[9]
   + 1.185674237267837 x[10] + 0.38779444403502 x[11]
   + 4.481507078590483 x[12] + 4.595343156296868 x[13]
   + 2.836908755883523 x[14] + 2.422546810043013 x[15]
   + 0.3955747841199818 x[16] + 3.923303845340393 x[17]
   + 3.957495307660789 x[18] + 0.3226201512899539 x[19]
   + 3.820242763789487 x[20] + 4.471288152088186 x[21]
   + 0.2755164188476453 x[22] + 2.099002720557563 x[23]
   + 1.288463597541101 x[24] + 1.944638506265625 x[25]
   + 3.688660351161548 x[26] + 2.076016497867615 x[27]
   + 0.1556654750889105 x[28] + 2.68157746919228 x[29]
   + 3.52513431148037 x[30] + 4.382163250559247 x[31]
   + 2.113103404406675 x[32] + 1.695584075053073 x[33]
   + 0.9489296453122479 x[34] + 4.475540542011164 x[35]
   + 3.036650375387531 x[36] + 2.470056924634861 x[37]
   + 2.909040817181667 x[38] + 0.0539238139464351 x[39]
   + 3.888013429122592 x[40] + 0.6358993742210587 x[41]
   + 2.597584883901949 x[42] + 0.1846413440205659 x[43]
   + 0.0363114170902848 x[44] + 1.181626007923835 x[45]
   + 3.426741451705742 x[46] + 2.61081986741228 x[47]
   + 1.823721425319072 x[48] + 4.229104912465824 x[49]
   + 1.25260282856379 x[50] + 3.476034165130687 x[51]
   + 2.083104467113186 x[52] + 3.79205467260867 x[53]
   + 1.666948510261949 x[54] + 1.109518632710913 x[55]
   + 4.451616298476167 x[56] + 3.524892210547292 x[57]
   + 3.555546466743128 x[58] + 2.141305186730195 x[59]
   + 0.3028871053390338 x[60] + 1.451176832708887 x[61]
   + 3.986813620562641 x[62] + 0.1750583022168825 x[63]
   + 1.405087050103291 x[64] + 3.852201836514767 x[65]
   + 3.089657844649637 x[66] + 3.96802205186195 x[67]
   + 3.60648854811743 x[68] + 0.7599894234771029 x[69]
   + 1.123877780411972 x[70] + 3.823631984017879 x[71]
   + 2.476824537302038 x[72] + 1.429204316845377 x[73]
   + 2.070983611472244 x[74] + 4.317062160881448 x[75]
   + 3.693451541397231 x[76] + 3.310998885491536 x[77]
   + 0.40305491579179 x[78] + 0.2690908684358034 x[79] + 53 u[0] + 74 u[1]
   + 96 u[2] + 17 u[3] + 2 u[4] + 7 u[5] + 35 u[6] + 85 u[7] + 51 u[8]
   + 100 u[9] + 41 u[10] + 69 u[11] + 82 u[12] + 46 u[13] + 74 u[14]
   + 66 u[15] + 87 u[16] + 62 u[17] + 31 u[18] + 88 u[19] + 59 u[20]
   + 33 u[21] + 58 u[22] + 12 u[23] + 86 u[24] + 78 u[25] + 36 u[26]
   + 53 u[27] + 15 u[28] + 25 u[29] + 19 u[30] + 69 u[31] + 49 u[32]
   + 87 u[33] + 78 u[34] + 7 u[35] + 62 u[36] + 94 u[37] + 14 u[38]
   + 4 u[39] + u[40] + 19 u[41] + 4 u[42] + 59 u[43] + 9 u[44] + 100 u[45]
   + 55 u[46] + 67 u[47] + 29 u[48] + 6 u[49] + 24 u[50] + 82 u[51]
   + 91 u[52] + 98 u[53] + 30 u[54] + 29 u[55] + 83 u[56] + 68 u[57]
   + 62 u[58] + 68 u[59] + 2 u[60] + 24 u[61] + 25 u[62] + 8 u[63]
   + 13 u[64] + 50 u[65] + 90 u[66] + 8 u[67] + 6 u[68] + 23 u[69]
   + 55 u[70] + 35 u[71] + 80 u[72] + 21 u[73] + 77 u[74] + 22 u[75]
   + 32 u[76] + 73 u[77] + 82 u[78] + 80 u[79] <= 46713
 mccormick1[0]: - u[0] + r[0] <= 0
 mccormick1[1]: - u[1] + r[1] <= 0
 mccormick1[2]: - u[2] + r[2] <= 0
 mccormick1[3]: - u[3] + r[3] <= 0
 mccormick1[4]: - u[4] + r[4] <= 0
 mccormick1[5]: - u[5] + r[5] <= 0
 mccormick1[6]: - u[6] + r[6] <= 0
 mccormick1[7]: - u[7] + r[7] <= 0
 mccormick1[8]: - u[8] + r[8] <= 0
 mccormick1[9]: - u[9] + r[9] <= 0
 mccormick1[10]: - u[10] + r[10] <= 0
 mccormick1[11]: - u[11] + r[11] <= 0
 mccormick1[12]: - u[12] + r[12] <= 0
 mccormick1[13]: - u[13] + r[13] <= 0
 mccormick1[14]: - u[14] + r[14] <= 0
 mccormick1[15]: - u[15] + r[15] <= 0
 mccormick1[16]: - u[16] + r[16] <= 0
 mccormick1[17]: - u[17] + r[17] <= 0
 mccormick1[18]: - u[18] + r[18] <= 0
 mccormick1[19]: - u[19] + r[19] <= 0
 mccormick1[20]: - u[20] + r[20] <= 0
 mccormick1[21]: - u[21] + r[21] <= 0
 mccormick1[22]: - u[22] + r[22] <= 0
 mccormick1[23]: - u[23] + r[23] <= 0
 mccormick1[24]: - u[24] + r[24] <= 0
 mccormick1[25]: - u[25] + r[25] <= 0
 mccormick1[26]: - u[26] + r[26] <= 0
 mccormick1[27]: - u[27] + r[27] <= 0
 mccormick1[28]: - u[28] + r[28] <= 0
 mccormick1[29]: - u[29] + r[29] <= 0
 mccormick1[30]: - u[30] + r[30] <= 0
 mccormick1[31]: - u[31] + r[31] <= 0
 mccormick1[32]: - u[32] + r[32] <= 0
 mccormick1[33]: - u[33] + r[33] <= 0
 mccormick1[34]: - u[34] + r[34] <= 0
 mccormick1[35]: - u[35] + r[35] <= 0
 mccormick1[36]: - u[36] + r[36] <= 0
 mccormick1[37]: - u[37] + r[37] <= 0
 mccormick1[38]: - u[38] + r[38] <= 0
 mccormick1[39]: - u[39] + r[39] <= 0
 mccormick1[40]: - u[40] + r[40] <= 0
 mccormick1[41]: - u[41] + r[41] <= 0
 mccormick1[42]: - u[42] + r[42] <= 0
 mccormick1[43]: - u[43] + r[43] <= 0
 mccormick1[44]: - u[44] + r[44] <= 0
 mccormick1[45]: - u[45] + r[45] <= 0
 mccormick1[46]: - u[46] + r[46] <= 0
 mccormick1[47]: - u[47] + r[47] <= 0
 mccormick1[48]: - u[48] + r[48] <= 0
 mccormick1[49]: - u[49] + r[49] <= 0
 mccormick1[50]: - u[50] + r[50] <= 0
 mccormick1[51]: - u[51] + r[51] <= 0
 mccormick1[52]: - u[52] + r[52] <= 0
 mccormick1[53]: - u[53] + r[53] <= 0
 mccormick1[54]: - u[54] + r[54] <= 0
 mccormick1[55]: - u[55] + r[55] <= 0
 mccormick1[56]: - u[56] + r[56] <= 0
 mccormick1[57]: - u[57] + r[57] <= 0
 mccormick1[58]: - u[58] + r[58] <= 0
 mccormick1[59]: - u[59] + r[59] <= 0
 mccormick1[60]: - u[60] + r[60] <= 0
 mccormick1[61]: - u[61] + r[61] <= 0
 mccormick1[62]: - u[62] + r[62] <= 0
 mccormick1[63]: - u[63] + r[63] <= 0
 mccormick1[64]: - u[64] + r[64] <= 0
 mccormick1[65]: - u[65] + r[65] <= 0
 mccormick1[66]: - u[66] + r[66] <= 0
 mccormick1[67]: - u[67] + r[67] <= 0
 mccormick1[68]: - u[68] + r[68] <= 0
 mccormick1[69]: - u[69] + r[69] <= 0
 mccormick1[70]: - u[70] + r[70] <= 0
 mccormick1[71]: - u[71] + r[71] <= 0
 mccormick1[72]: - u[72] + r[72] <= 0
 mccormick1[73]: - u[73] + r[73] <= 0
 mccormick1[74]: - u[74] + r[74] <= 0
 mccormick1[75]: - u[75] + r[75] <= 0
 mccormick1[76]: - u[76] + r[76] <= 0
 mccormick1[77]: - u[77] + r[77] <= 0
 mccormick1[78]: - u[78] + r[78] <= 0
 mccormick1[79]: - u[79] + r[79] <= 0
 mccormick2[0]: - x[0] + r[0] <= 0
 mccormick2[1]: - x[1] + r[1] <= 0
 mccormick2[2]: - x[2] + r[2] <= 0
 mccormick2[3]: - x[3] + r[3] <= 0
 mccormick2[4]: - x[4] + r[4] <= 0
 mccormick2[5]: - x[5] + r[5] <= 0
 mccormick2[6]: - x[6] + r[6] <= 0
 mccormick2[7]: - x[7] + r[7] <= 0
 mccormick2[8]: - x[8] + r[8] <= 0
 mccormick2[9]: - x[9] + r[9] <= 0
 mccormick2[10]: - x[10] + r[10] <= 0
 mccormick2[11]: - x[11] + r[11] <= 0
 mccormick2[12]: - x[12] + r[12] <= 0
 mccormick2[13]: - x[13] + r[13] <= 0
 mccormick2[14]: - x[14] + r[14] <= 0
 mccormick2[15]: - x[15] + r[15] <= 0
 mccormick2[16]: - x[16] + r[16] <= 0
 mccormick2[17]: - x[17] + r[17] <= 0
 mccormick2[18]: - x[18] + r[18] <= 0
 mccormick2[19]: - x[19] + r[19] <= 0
 mccormick2[20]: - x[20] + r[20] <= 0
 mccormick2[21]: - x[21] + r[21] <= 0
 mccormick2[22]: - x[22] + r[22] <= 0
 mccormick2[23]: - x[23] + r[23] <= 0
 mccormick2[24]: - x[24] + r[24] <= 0
 mccormick2[25]: - x[25] + r[25] <= 0
 mccormick2[26]: - x[26] + r[26] <= 0
 mccormick2[27]: - x[27] + r[27] <= 0
 mccormick2[28]: - x[28] + r[28] <= 0
 mccormick2[29]: - x[29] + r[29] <= 0
 mccormick2[30]: - x[30] + r[30] <= 0
 mccormick2[31]: - x[31] + r[31] <= 0
 mccormick2[32]: - x[32] + r[32] <= 0
 mccormick2[33]: - x[33] + r[33] <= 0
 mccormick2[34]: - x[34] + r[34] <= 0
 mccormick2[35]: - x[35] + r[35] <= 0
 mccormick2[36]: - x[36] + r[36] <= 0
 mccormick2[37]: - x[37] + r[37] <= 0
 mccormick2[38]: - x[38] + r[38] <= 0
 mccormick2[39]: - x[39] + r[39] <= 0
 mccormick2[40]: - x[40] + r[40] <= 0
 mccormick2[41]: - x[41] + r[41] <= 0
 mccormick2[42]: - x[42] + r[42] <= 0
 mccormick2[43]: - x[43] + r[43] <= 0
 mccormick2[44]: - x[44] + r[44] <= 0
 mccormick2[45]: - x[45] + r[45] <= 0
 mccormick2[46]: - x[46] + r[46] <= 0
 mccormick2[47]: - x[47] + r[47] <= 0
 mccormick2[48]: - x[48] + r[48] <= 0
 mccormick2[49]: - x[49] + r[49] <= 0
 mccormick2[50]: - x[50] + r[50] <= 0
 mccormick2[51]: - x[51] + r[51] <= 0
 mccormick2[52]: - x[52] + r[52] <= 0
 mccormick2[53]: - x[53] + r[53] <= 0
 mccormick2[54]: - x[54] + r[54] <= 0
 mccormick2[55]: - x[55] + r[55] <= 0
 mccormick2[56]: - x[56] + r[56] <= 0
 mccormick2[57]: - x[57] + r[57] <= 0
 mccormick2[58]: - x[58] + r[58] <= 0
 mccormick2[59]: - x[59] + r[59] <= 0
 mccormick2[60]: - x[60] + r[60] <= 0
 mccormick2[61]: - x[61] + r[61] <= 0
 mccormick2[62]: - x[62] + r[62] <= 0
 mccormick2[63]: - x[63] + r[63] <= 0
 mccormick2[64]: - x[64] + r[64] <= 0
 mccormick2[65]: - x[65] + r[65] <= 0
 mccormick2[66]: - x[66] + r[66] <= 0
 mccormick2[67]: - x[67] + r[67] <= 0
 mccormick2[68]: - x[68] + r[68] <= 0
 mccormick2[69]: - x[69] + r[69] <= 0
 mccormick2[70]: - x[70] + r[70] <= 0
 mccormick2[71]: - x[71] + r[71] <= 0
 mccormick2[72]: - x[72] + r[72] <= 0
 mccormick2[73]: - x[73] + r[73] <= 0
 mccormick2[74]: - x[74] + r[74] <= 0
 mccormick2[75]: - x[75] + r[75] <= 0
 mccormick2[76]: - x[76] + r[76] <= 0
 mccormick2[77]: - x[77] + r[77] <= 0
 mccormick2[78]: - x[78] + r[78] <= 0
 mccormick2[79]: - x[79] + r[79] <= 0
 mccormick3[0]: x[0] + u[0] - r[0] <= 1
 mccormick3[1]: x[1] + u[1] - r[1] <= 1
 mccormick3[2]: x[2] + u[2] - r[2] <= 1
 mccormick3[3]: x[3] + u[3] - r[3] <= 1
 mccormick3[4]: x[4] + u[4] - r[4] <= 1
 mccormick3[5]: x[5] + u[5] - r[5] <= 1
 mccormick3[6]: x[6] + u[6] - r[6] <= 1
 mccormick3[7]: x[7] + u[7] - r[7] <= 1
 mccormick3[8]: x[8] + u[8] - r[8] <= 1
 mccormick3[9]: x[9] + u[9] - r[9] <= 1
 mccormick3[10]: x[10] + u[10] - r[10] <= 1
 mccormick3[11]: x[11] + u[11] - r[11] <= 1
 mccormick3[12]: x[12] + u[12] - r[12] <= 1
 mccormick3[13]: x[13] + u[13] - r[13] <= 1
 mccormick3[14]: x[14] + u[14] - r[14] <= 1
 mccormick3[15]: x[15] + u[15] - r[15] <= 1
 mccormick3[16]: x[16] + u[16] - r[16] <= 1
 mccormick3[17]: x[17] + u[17] - r[17] <= 1
 mccormick3[18]: x[18] + u[18] - r[18] <= 1
 mccormick3[19]: x[19] + u[19] - r[19] <= 1
 mccormick3[20]: x[20] + u[20] - r[20] <= 1
 mccormick3[21]: x[21] + u[21] - r[21] <= 1
 mccormick3[22]: x[22] + u[22] - r[22] <= 1
 mccormick3[23]: x[23] + u[23] - r[23] <= 1
 mccormick3[24]: x[24] + u[24] - r[24] <= 1
 mccormick3[25]: x[25] + u[25] - r[25] <= 1
 mccormick3[26]: x[26] + u[26] - r[26] <= 1
 mccormick3[27]: x[27] + u[27] - r[27] <= 1
 mccormick3[28]: x[28] + u[28] - r[28] <= 1
 mccormick3[29]: x[29] + u[29] - r[29] <= 1
 mccormick3[30]: x[30] + u[30] - r[30] <= 1
 mccormick3[31]: x[31] + u[31] - r[31] <= 1
 mccormick3[32]: x[32] + u[32] - r[32] <= 1
 mccormick3[33]: x[33] + u[33] - r[33] <= 1
 mccormick3[34]: x[34] + u[34] - r[34] <= 1
 mccormick3[35]: x[35] + u[35] - r[35] <= 1
 mccormick3[36]: x[36] + u[36] - r[36] <= 1
 mccormick3[37]: x[37] + u[37] - r[37] <= 1
 mccormick3[38]: x[38] + u[38] - r[38] <= 1
 mccormick3[39]: x[39] + u[39] - r[39] <= 1
 mccormick3[40]: x[40] + u[40] - r[40] <= 1
 mccormick3[41]: x[41] + u[41] - r[41] <= 1
 mccormick3[42]: x[42] + u[42] - r[42] <= 1
 mccormick3[43]: x[43] + u[43] - r[43] <= 1
 mccormick3[44]: x[44] + u[44] - r[44] <= 1
 mccormick3[45]: x[45] + u[45] - r[45] <= 1
 mccormick3[46]: x[46] + u[46] - r[46] <= 1
 mccormick3[47]: x[47] + u[47] - r[47] <= 1
 mccormick3[48]: x[48] + u[48] - r[48] <= 1
 mccormick3[49]: x[49] + u[49] - r[49] <= 1
 mccormick3[50]: x[50] + u[50] - r[50] <= 1
 mccormick3[51]: x[51] + u[51] - r[51] <= 1
 mccormick3[52]: x[52] + u[52] - r[52] <= 1
 mccormick3[53]: x[53] + u[53] - r[53] <= 1
 mccormick3[54]: x[54] + u[54] - r[54] <= 1
 mccormick3[55]: x[55] + u[55] - r[55] <= 1
 mccormick3[56]: x[56] + u[56] - r[56] <= 1
 mccormick3[57]: x[57] + u[57] - r[57] <= 1
 mccormick3[58]: x[58] + u[58] - r[58] <= 1
 mccormick3[59]: x[59] + u[59] - r[59] <= 1
 mccormick3[60]: x[60] + u[60] - r[60] <= 1
 mccormick3[61]: x[61] + u[61] - r[61] <= 1
 mccormick3[62]: x[62] + u[62] - r[62] <= 1
 mccormick3[63]: x[63] + u[63] - r[63] <= 1
 mccormick3[64]: x[64] + u[64] - r[64] <= 1
 mccormick3[65]: x[65] + u[65] - r[65] <= 1
 mccormick3[66]: x[66] + u[66] - r[66] <= 1
 mccormick3[67]: x[67] + u[67] - r[67] <= 1
 mccormick3[68]: x[68] + u[68] - r[68] <= 1
 mccormick3[69]: x[69] + u[69] - r[69] <= 1
 mccormick3[70]: x[70] + u[70] - r[70] <= 1
 mccormick3[71]: x[71] + u[71] - r[71] <= 1
 mccormick3[72]: x[72] + u[72] - r[72] <= 1
 mccormick3[73]: x[73] + u[73] - r[73] <= 1
 mccormick3[74]: x[74] + u[74] - r[74] <= 1
 mccormick3[75]: x[75] + u[75] - r[75] <= 1
 mccormick3[76]: x[76] + u[76] - r[76] <= 1
 mccormick3[77]: x[77] + u[77] - r[77] <= 1
 mccormick3[78]: x[78] + u[78] - r[78] <= 1
 mccormick3[79]: x[79] + u[79] - r[79] <= 1
Bounds
Binaries
 x[0] x[1] x[2] x[3] x[4] x[5] x[6] x[7] x[8] x[9] x[10] x[11] x[12] x[13]
 x[14] x[15] x[16] x[17] x[18] x[19] x[20] x[21] x[22] x[23] x[24] x[25]
 x[26] x[27] x[28] x[29] x[30] x[31] x[32] x[33] x[34] x[35] x[36] x[37]
 x[38] x[39] x[40] x[41] x[42] x[43] x[44] x[45] x[46] x[47] x[48] x[49]
 x[50] x[51] x[52] x[53] x[54] x[55] x[56] x[57] x[58] x[59] x[60] x[61]
 x[62] x[63] x[64] x[65] x[66] x[67] x[68] x[69] x[70] x[71] x[72] x[73]
 x[74] x[75] x[76] x[77] x[78] x[79] u[0] u[1] u[2] u[3] u[4] u[5] u[6]
 u[7] u[8] u[9] u[10] u[11] u[12] u[13] u[14] u[15] u[16] u[17] u[18] u[19]
 u[20] u[21] u[22] u[23] u[24] u[25] u[26] u[27] u[28] u[29] u[30] u[31]
 u[32] u[33] u[34] u[35] u[36] u[37] u[38] u[39] u[40] u[41] u[42] u[43]
 u[44] u[45] u[46] u[47] u[48] u[49] u[50] u[51] u[52] u[53] u[54] u[55]
 u[56] u[57] u[58] u[59] u[60] u[61] u[62] u[63] u[64] u[65] u[66] u[67]
 u[68] u[69] u[70] u[71] u[72] u[73] u[74] u[75] u[76] u[77] u[78] u[79]
 r[0] r[1] r[2] r[3] r[4] r[5] r[6] r[7] r[8] r[9] r[10] r[11] r[12] r[13]
 r[14] r[15] r[16] r[17] r[18] r[19] r[20] r[21] r[22] r[23] r[24] r[25]
 r[26] r[27] r[28] r[29] r[30] r[31] r[32] r[33] r[34] r[35] r[36] r[37]
 r[38] r[39] r[40] r[41] r[42] r[43] r[44] r[45] r[46] r[47] r[48] r[49]
 r[50] r[51] r[52] r[53] r[54] r[55] r[56] r[57] r[58] r[59] r[60] r[61]
 r[62] r[63] r[64] r[65] r[66] r[67] r[68] r[69] r[70] r[71] r[72] r[73]
 r[74] r[75] r[76] r[77] r[78] r[79]
End
