instances/knapsack/discrete/knapsack_80_19.kp
15527
80
446

12 1.2 97
49 4.9 21
67 6.7 55
88 8.8 31
61 6.1 12
86 8.6 44
34 3.4 52
32 3.2 22
94 9.4 93
67 6.7 77
96 9.6 38
56 5.6 14
1 0.1 6
81 8.1 17
61 6.1 62
77 7.7 87
14 1.4 33
17 1.7 77
30 3.0 45
95 9.5 48
54 5.4 80
88 8.8 2
77 7.7 55
71 7.1 23
97 9.7 52
49 4.9 21
83 8.3 55
32 3.2 94
10 1.0 61
36 3.6 95
38 3.8 92
84 8.4 11
64 6.4 95
90 9.0 90
17 1.7 10
82 8.2 96
65 6.5 76
21 2.1 42
57 5.7 9
95 9.5 70
8 0.8 19
22 2.2 28
47 4.7 24
82 8.2 74
32 3.2 53
11 1.1 22
86 8.6 75
82 8.2 3
24 2.4 55
77 7.7 32
83 8.3 54
29 2.9 81
78 7.8 86
97 9.7 28
89 8.9 51
100 10.0 73
74 7.4 37
87 8.7 3
17 1.7 31
83 8.3 70
81 8.1 19
67 6.7 25
32 3.2 56
55 5.5 60
100 10.0 37
5 0.5 20
85 8.5 36
67 6.7 56
33 3.3 95
46 4.6 48
14 1.4 32
66 6.6 26
31 3.1 20
68 6.8 40
92 9.2 29
69 6.9 81
63 6.3 21
88 8.8 72
81 8.1 71
11 1.1 34

46713
370

[0.8032473118403902 2.9350430400241976 1.651638995332038 0.5211173611510044 0.14022234791461843 3.539342112934054 3.1559157654671783 1.5077032715180134 2.277122086629023 2.7241301280926264 1.1856742372678368 0.38779444403502 4.481507078590483 4.595343156296868 2.836908755883523 2.4225468100430128 0.3955747841199818 3.923303845340393 3.9574953076607886 0.3226201512899539 3.8202427637894867 4.471288152088186 0.2755164188476453 2.0990027205575634 1.288463597541101 1.9446385062656248 3.6886603511615483 2.076016497867615 0.15566547508891054 2.6815774691922796 3.5251343114803704 4.382163250559247 2.1131034044066745 1.6955840750530728 0.9489296453122479 4.4755405420111645 3.0366503753875307 2.470056924634861 2.909040817181667 0.05392381394643511 3.888013429122592 0.6358993742210587 2.597584883901949 0.18464134402056587 0.036311417090284834 1.1816260079238354 3.426741451705742 2.61081986741228 1.8237214253190717 4.229104912465824 1.2526028285637902 3.476034165130687 2.083104467113186 3.7920546726086704 1.6669485102619488 1.1095186327109132 4.451616298476167 3.5248922105472915 3.5555464667431282 2.1413051867301953 0.30288710533903385 1.4511768327088865 3.986813620562641 0.17505830221688246 1.405087050103291 3.8522018365147668 3.089657844649637 3.96802205186195 3.60648854811743 0.7599894234771029 1.123877780411972 3.8236319840178785 2.4768245373020377 1.4292043168453774 2.070983611472244 4.317062160881448 3.693451541397231 3.3109988854915358 0.40305491579179004 0.26909086843580343]

[53 74 96 17 2 7 35 85 51 100 41 69 82 46 74 66 87 62 31 88 59 33 58 12 86 78 36 53 15 25 19 69 49 87 78 7 62 94 14 4 1 19 4 59 9 100 55 67 29 6 24 82 91 98 30 29 83 68 62 68 2 24 25 8 13 50 90 8 6 23 55 35 80 21 77 22 32 73 82 80]
